WARNING: for repeatability, setting FPU to use double precision
============================[ Problem Statistics ]=============================
|                                                                             |
|  Number of variables:            50                                         |
|  Number of clauses:             218                                         |
|  Parse time:                   0.00 s                                       |
|                                                                             |
============================[ Search Statistics ]==============================
| Conflicts |          ORIGINAL         |          LEARNT          | Progress |
|           |    Vars  Clauses Literals |    Limit  Clauses Lit/Cl |          |
===============================================================================
===============================================================================
restarts              : 1
conflicts             : 74             (48620 /sec)
decisions             : 92             (0.00 % random) (60447 /sec)
propagations          : 1087           (714192 /sec)
conflict literals     : 287            (16.08 % deleted)
Memory used           : 20.00 MB
CPU time              : 0.001522 s

UNSATISFIABLE
